20 64 142
1 6 4
1 10 4
1 14 2
1 17 2
2 5 4
2 8 4
2 10 4
2 11 4
2 13 2
2 14 3
2 18 4
2 20 5
3 10 2
3 14 1
3 16 5
4 5 2
4 12 2
4 13 5
4 16 3
4 18 3
5 8 3
5 9 1
5 14 2
6 8 5
6 9 1
6 10 1
6 15 3
6 17 3
6 18 1
6 19 2
7 10 5
7 14 4
7 15 4
7 18 4
7 19 3
8 10 3
8 14 2
8 16 3
9 10 4
9 11 4
9 12 4
9 16 2
9 18 5
10 12 4
10 13 4
10 15 3
10 19 3
10 20 2
11 12 2
11 13 3
11 14 2
11 16 3
11 17 3
11 19 4
11 20 1
12 13 1
12 18 2
13 15 1
14 15 2
14 16 5
14 17 2
15 20 2
16 19 2
18 20 3
